HUN,8,6,579
1,3,0,17,2,5,3,23,4,20,5,26
2,24,1,14,0,17,5,28,3,22,4,30
0,1,2,12,1,10,5,1,3,15,4,25
1,9,0,5,2,4,4,12,3,10,5,15
0,29,1,30,2,15,4,19,3,21,5,23
1,12,0,6,2,11,5,7,3,2,4,24
1,25,0,14,2,2,3,16,5,23,4,24
1,26,2,5,0,28,3,9,4,4,5,30
